128 80
38 108 60 24 49 75 127 128 8 92 3 14 91 58 98 42 67 119 64 83 93 62 11 124 105 90 32 50 35 104 79 107 87 115 95 71 117 37 99 10 9 66 2 26 97 15 61 45 126 114 47 78 63 29 1 100 85 122 113 56 43 19 84 23 69 82 4 13 94 74 18 118 86 52 22 125 30 12 70 6 17 76 121 72 54 34 57 59 16 20 68 36 77 25 44 80 111 39 48 46 7 33 103 109 112 40 89 21 27 28 55 5 51 73 88 102 101 120 31 81 116 53 65 110 106 123 96 41 
